RAW/montane/fspd-mid/c101_seed-8.out
1220.99069	14	170.189
