RAW/montane/fspd-mid/c101_seed-8.sol
Route #1: 75 1 2 4 3 5
Route #2: 10 11 9 6
Route #3: 67 65 62 74 63
Route #4: 20 24 27 25 22 21
Route #5: 99 100 97 93 92 94 95 96
Route #6: 90 87 86 89 91
Route #7: 18 19 15 16 14 12 8 7
Route #8: 41 40 59 68 69
Route #9: 23 26 28 30 17 13
Route #10: 98 88 85 84 82 83
Route #11: 47 46 48 45 44 42 43
Route #12: 57 60 58 56 53 54 55
Route #13: 81 79 80 72 61 64 66
Route #14: 32 33 36 34 29
Route #15: 78 76 71 70 73 77
Route #16: 49 52 50 51 31 35 37 38 39
Cost 1220.990690